qbf_easy_train/easy_1954_SAT.qdimacs
p cnf 30 84
a 11 22 7 0
e 1 2 3 4 5 6 8 9 10 12 13 14 15 16 17 18 19 20 21 23 24 25 26 27 28 29 30 0
3 -1 0
3 2 0
1 -2 -3 0
1 3 -4 0
-1 -3 -4 0
1 -3 4 0
-1 3 4 0
-5 6 -7 0
5 -6 -7 0
-5 -6 7 0
5 6 7 0
-8 -2 0
-8 6 0
2 -6 8 0
3 -8 -9 0
-3 8 -9 0
3 8 9 0
-3 -8 9 0
-10 9 0
-10 -8 0
-9 8 10 0
10 11 -12 0
-10 -11 -12 0
10 -11 12 0
-10 11 12 0
-13 -7 0
-13 -12 0
7 12 13 0
14 3 0
14 -8 0
-3 8 -14 0
-15 -6 0
-15 -5 0
6 5 15 0
-14 15 -16 0
14 -15 -16 0
-14 -15 16 0
14 15 16 0
17 -13 0
17 -16 0
13 16 -17 0
18 -11 0
18 9 0
11 -9 -18 0
19 11 0
19 -18 0
-11 18 -19 0
20 -17 0
20 19 0
17 -19 -20 0
4 -20 -21 0
-4 20 -21 0
4 20 21 0
-4 -20 21 0
23 -6 0
23 22 0
6 -22 -23 0
-25 24 0
-25 22 0
-24 -22 25 0
10 -26 -27 0
-10 26 -27 0
10 26 27 0
-10 -26 27 0
28 -25 0
28 27 0
25 -27 -28 0
-23 -28 -29 0
23 28 -29 0
-23 28 29 0
23 -28 29 0
21 -29 -30 0
-21 29 -30 0
21 29 30 0
-21 -29 30 0
-19 -28 2 25 22 0
23 -8 -4 0
24 12 -29 -26 21 8 -23 0
-6 -20 -1 30 -12 -23 22 0
-11 -25 28 -4 0
23 -11 27 -30 0
6 -29 21 0
-21 -24 13 -7 12 15 0
30 0
