sat_easy_train/easy_1954_SAT.dimacs
p cnf 119 391
-4 -2 0
-4 -3 0
2 3 4 0
-6 5 0
-6 5 0
-5 6 0
-4 6 -7 0
4 -6 -7 0
-4 -6 7 0
4 6 7 0
-8 -1 0
-8 -7 0
1 7 8 0
-10 3 0
-10 9 0
-3 -9 10 0
13 11 0
13 12 0
-11 -12 -13 0
13 -14 0
-13 -14 0
-1 14 -15 0
1 -14 -15 0
-1 -14 15 0
1 14 15 0
10 15 -16 0
-10 -15 -16 0
10 -15 16 0
-10 15 16 0
-17 -8 0
-17 -16 0
8 16 17 0
18 8 0
18 -14 0
-8 14 -18 0
21 19 0
21 -20 0
-19 20 -21 0
22 18 0
22 21 0
-18 -21 -22 0
23 -17 0
23 -22 0
17 22 -23 0
-24 13 0
-24 12 0
-13 -12 24 0
25 5 0
25 24 0
-5 -24 -25 0
27 -13 0
27 -3 0
13 3 -27 0
28 26 0
28 27 0
-26 -27 -28 0
29 -25 0
29 28 0
25 -28 -29 0
30 2 0
30 13 0
-2 -13 -30 0
31 30 0
31 7 0
-30 -7 -31 0
30 -31 -32 0
-30 31 -32 0
30 31 32 0
-30 -31 32 0
-33 21 0
-33 -32 0
-21 32 33 0
34 -13 0
34 -19 0
13 19 -34 0
-35 -14 0
-35 -34 0
14 34 35 0
-36 33 0
-36 35 0
-33 -35 36 0
37 38 -39 0
-37 -38 -39 0
37 -38 39 0
-37 38 39 0
40 34 0
40 39 0
-34 -39 -40 0
-41 -36 0
-41 40 0
36 -40 41 0
29 -41 -42 0
-29 41 -42 0
29 41 42 0
-29 -41 42 0
43 6 0
43 8 0
-6 -8 -43 0
44 43 0
44 24 0
-43 -24 -44 0
44 45 -46 0
-44 -45 -46 0
44 -45 46 0
-44 45 46 0
46 -33 -47 0
-46 33 -47 0
46 33 47 0
-46 -33 47 0
49 47 0
49 48 0
-47 -48 -49 0
50 42 0
50 -49 0
-42 49 -50 0
-44 16 -51 0
44 -16 -51 0
-44 -16 51 0
44 16 51 0
52 -50 0
52 51 0
50 -51 -52 0
-53 4 0
-53 45 0
-4 -45 53 0
54 5 0
54 -53 0
-5 53 -54 0
55 52 0
55 -54 0
-52 54 -55 0
-56 -23 0
-56 55 0
23 -55 56 0
3 5 -57 0
-3 -5 -57 0
3 -5 57 0
-3 5 57 0
58 57 0
58 -12 0
-57 12 -58 0
-59 -20 0
-59 32 0
20 -32 59 0
61 43 0
61 -60 0
-43 60 -61 0
62 59 0
62 61 0
-59 -61 -62 0
58 62 -63 0
-58 -62 -63 0
58 -62 63 0
-58 62 63 0
64 56 0
64 -63 0
-56 63 -64 0
65 45 0
65 -39 0
-45 39 -65 0
65 26 -66 0
-65 -26 -66 0
65 -26 66 0
-65 26 66 0
67 45 0
67 43 0
-45 -43 -67 0
-67 44 -68 0
67 -44 -68 0
-67 -44 68 0
67 44 68 0
-7 -31 -69 0
7 31 -69 0
-7 31 69 0
7 -31 69 0
-14 70 0
14 70 0
69 -70 -71 0
-69 70 -71 0
69 70 71 0
-69 -70 71 0
72 -68 0
72 71 0
68 -71 -72 0
66 -72 -73 0
-66 72 -73 0
66 72 73 0
-66 -72 73 0
74 7 0
74 38 0
-7 -38 -74 0
-75 -44 0
-75 -14 0
44 14 75 0
-76 8 0
-76 -1 0
-8 1 76 0
77 75 0
77 76 0
-75 -76 -77 0
31 -34 -78 0
-31 34 -78 0
31 34 78 0
-31 -34 78 0
80 -10 0
80 -79 0
10 79 -80 0
81 -78 0
81 80 0
78 -80 -81 0
82 18 0
82 -21 0
-18 21 -82 0
-83 81 0
-83 -82 0
-81 82 83 0
84 -77 0
84 83 0
77 -83 -84 0
-85 -47 0
-85 -15 0
47 15 85 0
86 84 0
86 -85 0
-84 85 -86 0
87 -74 0
87 86 0
74 -86 -87 0
-88 -4 0
-88 12 0
4 -12 88 0
-89 70 0
-89 -21 0
-70 21 89 0
-90 -88 0
-90 89 0
88 -89 90 0
-8 10 -91 0
8 -10 -91 0
-8 -10 91 0
8 10 91 0
92 -90 0
92 91 0
90 -91 -92 0
93 32 0
93 -70 0
-32 70 -93 0
9 38 -94 0
-9 -38 -94 0
9 -38 94 0
-9 38 94 0
-20 -3 -95 0
20 3 -95 0
-20 3 95 0
20 -3 95 0
-11 26 -96 0
11 -26 -96 0
-11 -26 96 0
11 26 96 0
-95 -96 -97 0
95 96 -97 0
-95 96 97 0
95 -96 97 0
-94 -97 -98 0
94 97 -98 0
-94 97 98 0
94 -97 98 0
-9 -12 -99 0
9 12 -99 0
-9 12 99 0
9 -12 99 0
-100 99 0
-100 24 0
-99 -24 100 0
-98 -100 -101 0
98 100 -101 0
-98 100 101 0
98 -100 101 0
33 -3 -102 0
-33 3 -102 0
33 3 102 0
-33 -3 102 0
-101 102 -103 0
101 -102 -103 0
-101 -102 103 0
101 102 103 0
-93 -103 -104 0
93 103 -104 0
-93 103 104 0
93 -103 104 0
92 104 -105 0
-92 -104 -105 0
92 -104 105 0
-92 104 105 0
-106 -87 0
-106 105 0
87 -105 106 0
107 -38 0
107 5 0
38 -5 -107 0
-1 16 -108 0
1 -16 -108 0
-1 -16 108 0
1 16 108 0
109 -7 0
109 30 0
7 -30 -109 0
110 -108 0
110 109 0
108 -109 -110 0
-111 107 0
-111 -110 0
-107 110 111 0
-112 -15 0
-112 5 0
15 -5 112 0
113 46 0
113 112 0
-46 -112 -113 0
-12 15 -114 0
12 -15 -114 0
-12 -15 114 0
12 15 114 0
-115 -113 0
-115 114 0
113 -114 115 0
-116 111 0
-116 115 0
-111 -115 116 0
-117 -106 0
-117 -116 0
106 116 117 0
118 -73 0
118 -117 0
73 117 -118 0
64 118 -119 0
-64 -118 -119 0
64 -118 119 0
-64 118 119 0
107 -19 -92 0
44 14 30 -119 0
108 -75 -70 0
51 88 29 0
65 -99 -75 68 20 0
34 -16 38 12 118 93 0
24 22 -5 0
-73 18 -66 -11 -41 22 0
15 -38 -84 -60 0
-69 -44 -88 -47 -32 -37 0
-102 -106 -44 -113 0
107 61 0
-108 -34 -73 -90 -74 -93 0
-58 47 -50 -24 0
119 -50 0
96 -50 31 0
115 64 10 11 -4 0
-5 -108 68 0
-65 -102 0
-79 17 -51 -94 -58 0
119 -37 0
-97 -58 -86 0
-68 62 93 -9 0
46 -37 0
-84 93 -47 0
-61 100 107 -18 -73 -34 0
-78 -111 3 80 -71 0
-57 -69 108 88 0
17 -106 0
-1 -94 101 93 119 6 0
-4 -34 -84 -35 13 -109 0
-44 67 75 4 51 0
-70 -23 12 36 -99 57 0
-75 -88 47 35 31 0
74 23 9 0
2 -117 47 -48 -65 25 0
1 -32 -12 0
-9 -87 0
32 19 -17 37 0
37 -12 -82 87 0
55 -17 -97 20 0
70 26 34 -15 0
-101 10 0
96 14 0
-37 -109 -113 98 -118 0
-89 -114 -79 -96 0
-51 38 80 -71 29 -22 0
32 -119 -88 116 0
-44 -61 52 110 -68 0
70 83 -82 0
12 40 51 110 0
119 0
